# Solution for model HELLO
# Objective value = 6049640
XXXXXXX0 1
XXXXXXX1 0
XXXXXXX2 0
XXXXXXX3 1
XXXXXXX4 1
XXXXXXX5 1
XXXXXXX6 1
XXXXXXX7 1
XXXXXXX8 0
XXXXXXX9 0
XXXXXX10 1
XXXXXX11 1
XXXXXX12 0
XXXXXX13 1
XXXXXX14 1
XXXXXX15 0
XXXXXX16 1
XXXXXX17 1
XXXXXX18 1
XXXXXX19 1
XXXXXX20 0
XXXXXX21 1
XXXXXX22 1
XXXXXX23 0
XXXXXX24 0
XXXXXX25 1
XXXXXX26 0
XXXXXX27 1
XXXXXX28 1
XXXXXX29 0
XXXXXX30 1
XXXXXX31 0
XXXXXX32 0
XXXXXX33 0
XXXXXX34 1
XXXXXX35 0
XXXXXX36 1
XXXXXX37 0
XXXXXX38 1
XXXXXX39 1
XXXXXX40 0
XXXXXX41 0
XXXXXX42 0
XXXXXX43 1
XXXXXX44 0
XXXXXX45 0
XXXXXX46 0
XXXXXX47 0
XXXXXX48 1
XXXXXX49 1
XXXXXX50 0
XXXXXX51 0
XXXXXX52 0
XXXXXX53 0
XXXXXX54 1
XXXXXX55 0
XXXXXX56 1
XXXXXX57 1
XXXXXX58 1
XXXXXX59 0
XXXXXX60 1
XXXXXX61 1
XXXXXX62 0
XXXXXX63 1
XXXXXX64 0
XXXXXX65 0
XXXXXX66 1
XXXXXX67 1
XXXXXX68 0
XXXXXX69 1
XXXXXX70 0
XXXXXX71 1
XXXXXX72 0
XXXXXX73 0
XXXXXX74 1
XXXXXX75 0
XXXXXX76 1
XXXXXX77 1
XXXXXX78 0
XXXXXX79 1
XXXXXX80 0
XXXXXX81 0
XXXXXX82 0
XXXXXX83 0
XXXXXX84 0
XXXXXX85 1
XXXXXX86 1
XXXXXX87 1
XXXXXX88 0
XXXXXX89 1
XXXXXX90 1
XXXXXX91 1
XXXXXX92 0
XXXXXX93 0
XXXXXX94 1
XXXXXX95 0
XXXXXX96 1
XXXXXX97 0
XXXXXX98 0
XXXXXX99 0
XXXXX100 0
XXXXX101 0
XXXXX102 0
XXXXX103 0
XXXXX104 0
XXXXX105 0
XXXXX106 0
XXXXX107 0
XXXXX108 0
XXXXX109 0
XXXXX110 0
XXXXX111 0
XXXXX112 0
XXXXX113 0
XXXXX114 0
XXXXX115 0
XXXXX116 0
XXXXX117 0
XXXXX118 0
XXXXX119 0
XXXXX120 0
XXXXX121 0
XXXXX122 0
XXXXX123 0
XXXXX124 0
XXXXX125 0
XXXXX126 0
XXXXX127 0
XXXXX128 0
XXXXX129 0
XXXXX130 0
XXXXX131 0
XXXXX132 0
XXXXX133 0
XXXXX134 0
XXXXX135 0
XXXXX136 0
XXXXX137 0
XXXXX138 0
XXXXX139 0
XXXXX140 0
XXXXX141 0
XXXXX142 0
XXXXX143 1
XXXXX144 0
XXXXX145 0
XXXXX146 0
XXXXX147 1
XXXXX148 0
XXXXX149 0
XXXXX150 0
XXXXX151 1
XXXXX152 0
XXXXX153 1
XXXXX154 0
XXXXX155 0
XXXXX156 0
XXXXX157 1
XXXXX158 1
XXXXX159 1
XXXXX160 1
XXXXX161 0
XXXXX162 1
XXXXX163 0
XXXXX164 0
XXXXX165 0
XXXXX166 1
XXXXX167 0
XXXXX168 1
XXXXX169 0
XXXXX170 1
XXXXX171 1
XXXXX172 1
XXXXX173 1
XXXXX174 1
XXXXX175 0
XXXXX176 1
XXXXX177 1
XXXXX178 1
XXXXX179 0
XXXXX180 0
XXXXX181 0
XXXXX182 0
XXXXX183 0
XXXXX184 0
XXXXX185 1
XXXXX186 0
XXXXX187 1
XXXXX188 1
XXXXX189 1
XXXXX190 1
XXXXX191 1
XXXXX192 0
XXXXX193 1
XXXXX194 0
XXXXX195 0
XXXXX196 1
XXXXX197 1
XXXXX198 1
XXXXX199 1
XXXXX200 1
XXXXX201 0
XXXXX202 1
XXXXX203 0
XXXXX204 1
XXXXX205 0
XXXXX206 0
XXXXX207 0
XXXXX208 0
XXXXX209 1
XXXXX210 0
XXXXX211 0
XXXXX212 1
XXXXX213 1
XXXXX214 1
XXXXX215 0
XXXXX216 0
XXXXX217 0
XXXXX218 0
XXXXX219 0
XXXXX220 0
XXXXX221 1
XXXXX222 1
XXXXX223 0
XXXXX224 0
XXXXX225 1
XXXXX226 1
XXXXX227 1
XXXXX228 0
XXXXX229 0
XXXXX230 1
XXXXX231 0
XXXXX232 1
XXXXX233 0
XXXXX234 0
XXXXX235 0
XXXXX236 0
XXXXX237 1
XXXXX238 1
XXXXX239 0
XXXXX240 0
XXXXX241 1
XXXXX242 1
XXXXX243 0
XXXXX244 1
XXXXX245 1
XXXXX246 1
XXXXX247 0
XXXXX248 0
XXXXX249 1
XXXXX250 1
XXXXX251 1
XXXXX252 1
XXXXX253 1
XXXXX254 1
XXXXX255 0
XXXXX256 1
XXXXX257 0
XXXXX258 1
XXXXX259 1
XXXXX260 1
XXXXX261 1
XXXXX262 1
XXXXX263 0
XXXXX264 1
XXXXX265 0
XXXXX266 1
XXXXX267 1
XXXXX268 0
XXXXX269 1
XXXXX270 1
XXXXX271 1
XXXXX272 1
XXXXX273 0
XXXXX274 0
XXXXX275 1
XXXXX276 1
XXXXX277 0
XXXXX278 1
XXXXX279 0
XXXXX280 1
XXXXX281 0
XXXXX282 0
XXXXX283 1
XXXXX284 1
XXXXX285 0
XXXXX286 1
XXXXX287 1
XXXXX288 0
XXXXX289 1
XXXXX290 1
XXXXX291 1
XXXXX292 0
XXXXX293 0
XXXXX294 1
XXXXX295 1
XXXXX296 0
XXXXX297 1
XXXXX298 1
XXXXX299 0
XXXXX300 0
XXXXX301 0
XXXXX302 1
XXXXX303 1
XXXXX304 0
XXXXX305 0
XXXXX306 1
XXXXX307 1
XXXXX308 0
XXXXX309 0
XXXXX310 1
XXXXX311 1
XXXXX312 1
XXXXX313 1
XXXXX314 1
XXXXX315 1
XXXXX316 1
XXXXX317 1
XXXXX318 1
XXXXX319 0
XXXXX320 0
XXXXX321 0
XXXXX322 0
XXXXX323 0
XXXXX324 0
XXXXX325 1
XXXXX326 0
XXXXX327 0
XXXXX328 0
XXXXX329 1
XXXXX330 1
XXXXX331 0
XXXXX332 1
XXXXX333 1
XXXXX334 0
XXXXX335 1
XXXXX336 0
XXXXX337 0
XXXXX338 0
XXXXX339 0
XXXXX340 1
XXXXX341 1
XXXXX342 0
XXXXX343 1
XXXXX344 0
XXXXX345 0
XXXXX346 1
XXXXX347 1
XXXXX348 0
XXXXX349 0
XXXXX350 1
XXXXX351 0
XXXXX352 1
XXXXX353 0
XXXXX354 0
XXXXX355 1
XXXXX356 0
XXXXX357 1
XXXXX358 1
XXXXX359 1
XXXXX360 0
XXXXX361 0
XXXXX362 0
XXXXX363 0
XXXXX364 0
XXXXX365 1
XXXXX366 0
XXXXX367 0
XXXXX368 1
XXXXX369 1
XXXXX370 0
XXXXX371 1
XXXXX372 0
XXXXX373 0
XXXXX374 0
XXXXX375 1
XXXXX376 0
XXXXX377 1
XXXXX378 1
XXXXX379 1
XXXXX380 0
XXXXX381 1
XXXXX382 1
XXXXX383 0
XXXXX384 0
XXXXX385 0
XXXXX386 1
XXXXX387 1
XXXXX388 0
XXXXX389 1
XXXXX390 0
XXXXX391 0
XXXXX392 0
XXXXX393 0
XXXXX394 0
XXXXX395 0
XXXXX396 1
XXXXX397 0
XXXXX398 0
XXXXX399 1
XXXXX400 0
XXXXX401 1
XXXXX402 1
XXXXX403 1
XXXXX404 1
XXXXX405 1
XXXXX406 0
XXXXX407 0
XXXXX408 1
XXXXX409 1
XXXXX410 0
XXXXX411 1
XXXXX412 1
XXXXX413 0
XXXXX414 1
XXXXX415 1
XXXXX416 1
XXXXX417 0
XXXXX418 1
XXXXX419 0
XXXXX420 0
XXXXX421 1
XXXXX422 1
XXXXX423 0
XXXXX424 1
XXXXX425 1
XXXXX426 0
XXXXX427 1
XXXXX428 1
XXXXX429 0
XXXXX430 0
XXXXX431 0
XXXXX432 0
XXXXX433 0
XXXXX434 0
XXXXX435 1
XXXXX436 1
XXXXX437 0
XXXXX438 0
XXXXX439 0
XXXXX440 1
XXXXX441 1
XXXXX442 0
XXXXX443 0
XXXXX444 0
XXXXX445 0
XXXXX446 1
XXXXX447 0
XXXXX448 1
XXXXX449 0
XXXXX450 1
XXXXX451 1
XXXXX452 0
XXXXX453 0
XXXXX454 1
XXXXX455 1
XXXXX456 1
XXXXX457 0
XXXXX458 1
XXXXX459 0
XXXXX460 1
XXXXX461 1
XXXXX462 0
XXXXX463 1
XXXXX464 0
XXXXX465 1
XXXXX466 0
XXXXX467 0
XXXXX468 1
XXXXX469 1
XXXXX470 0
XXXXX471 0
XXXXX472 0
XXXXX473 1
XXXXX474 0
XXXXX475 1
XXXXX476 0
XXXXX477 0
XXXXX478 0
XXXXX479 0
XXXXX480 1
XXXXX481 0
XXXXX482 0
XXXXX483 1
XXXXX484 1
XXXXX485 1
XXXXX486 0
XXXXX487 1
XXXXX488 0
XXXXX489 1
XXXXX490 1
XXXXX491 1
XXXXX492 1
XXXXX493 1
XXXXX494 1
XXXXX495 1
XXXXX496 0
XXXXX497 1
XXXXX498 1
XXXXX499 0
XXXXX500 1
XXXXX501 0
XXXXX502 0
XXXXX503 1
XXXXX504 1
XXXXX505 0
XXXXX506 0
XXXXX507 1
XXXXX508 0
XXXXX509 1
XXXXX510 0
XXXXX511 1
XXXXX512 0
XXXXX513 1
XXXXX514 1
XXXXX515 0
XXXXX516 0
XXXXX517 1
XXXXX518 1
XXXXX519 0
XXXXX520 1
XXXXX521 1
XXXXX522 1
XXXXX523 0
XXXXX524 1
XXXXX525 1
XXXXX526 1
XXXXX527 1
XXXXX528 0
XXXXX529 1
XXXXX530 1
XXXXX531 1
XXXXX532 0
XXXXX533 0
XXXXX534 0
XXXXX535 1
XXXXX536 0
XXXXX537 1
XXXXX538 0
XXXXX539 1
XXXXX540 1
XXXXX541 0
XXXXX542 0
XXXXX543 1
XXXXX544 0
XXXXX545 0
XXXXX546 1
XXXXX547 0
XXXXX548 1
XXXXX549 1
XXXXX550 1
XXXXX551 1
XXXXX552 0
XXXXX553 1
XXXXX554 1
XXXXX555 1
XXXXX556 1
XXXXX557 1
XXXXX558 0
XXXXX559 1
XXXXX560 1
XXXXX561 1
XXXXX562 0
XXXXX563 1
XXXXX564 1
XXXXX565 0
XXXXX566 0
XXXXX567 1
XXXXX568 0
XXXXX569 1
XXXXX570 1
XXXXX571 0
XXXXX572 1
XXXXX573 0
XXXXX574 0
XXXXX575 0
XXXXX576 1
XXXXX577 1
XXXXX578 1
XXXXX579 1
XXXXX580 0
XXXXX581 1
XXXXX582 1
XXXXX583 0
XXXXX584 1
XXXXX585 1
XXXXX586 1
XXXXX587 0
XXXXX588 0
XXXXX589 1
XXXXX590 1
XXXXX591 0
XXXXX592 0
XXXXX593 1
XXXXX594 1
XXXXX595 1
XXXXX596 1
XXXXX597 0
XXXXX598 1
XXXXX599 0
XXXXX600 0
XXXXX601 1
XXXXX602 1
XXXXX603 1
XXXXX604 1
XXXXX605 0
XXXXX606 0
XXXXX607 1
XXXXX608 0
XXXXX609 0
XXXXX610 1
XXXXX611 1
XXXXX612 0
XXXXX613 1
XXXXX614 1
XXXXX615 1
XXXXX616 1
XXXXX617 1
XXXXX618 0
XXXXX619 0
XXXXX620 0
XXXXX621 0
XXXXX622 1
XXXXX623 1
XXXXX624 1
XXXXX625 0
XXXXX626 0
XXXXX627 1
XXXXX628 1
XXXXX629 1
XXXXX630 1
XXXXX631 0
XXXXX632 1
XXXXX633 1
XXXXX634 1
XXXXX635 1
XXXXX636 1
XXXXX637 1
XXXXX638 1
XXXXX639 1
XXXXX640 0
XXXXX641 0
XXXXX642 0
XXXXX643 0
XXXXX644 1
XXXXX645 1
XXXXX646 0
XXXXX647 1
XXXXX648 0
XXXXX649 0
XXXXX650 1
XXXXX651 1
XXXXX652 1
XXXXX653 1
XXXXX654 0
XXXXX655 1
XXXXX656 0
XXXXX657 1
XXXXX658 1
XXXXX659 0
XXXXX660 1
XXXXX661 0
XXXXX662 0
XXXXX663 1
XXXXX664 1
XXXXX665 1
XXXXX666 1
XXXXX667 0
XXXXX668 0
XXXXX669 0
XXXXX670 0
XXXXX671 0
XXXXX672 1
XXXXX673 1
XXXXX674 0
XXXXX675 1
XXXXX676 1
XXXXX677 1
XXXXX678 0
XXXXX679 0
XXXXX680 1
XXXXX681 1
XXXXX682 1
XXXXX683 1
XXXXX684 1
XXXXX685 1
XXXXX686 0
XXXXX687 0
XXXXX688 0
XXXXX689 1
XXXXX690 1
XXXXX691 1
XXXXX692 0
XXXXX693 0
XXXXX694 1
XXXXX695 1
XXXXX696 1
XXXXX697 0
XXXXX698 1
XXXXX699 1
XXXXX700 0
XXXXX701 0
XXXXX702 0
XXXXX703 1
XXXXX704 1
XXXXX705 1
XXXXX706 0
XXXXX707 1
XXXXX708 1
XXXXX709 0
XXXXX710 0
XXXXX711 0
XXXXX712 0
XXXXX713 0
XXXXX714 0
XXXXX715 1
XXXXX716 0
XXXXX717 1
XXXXX718 1
XXXXX719 1
XXXXX720 0
XXXXX721 0
XXXXX722 0
XXXXX723 1
XXXXX724 0
XXXXX725 0
XXXXX726 0
XXXXX727 1
XXXXX728 0
XXXXX729 0
XXXXX730 1
XXXXX731 0
XXXXX732 1
XXXXX733 1
XXXXX734 1
XXXXX735 0
XXXXX736 1
XXXXX737 0
XXXXX738 1
XXXXX739 1
XXXXX740 1
XXXXX741 0
XXXXX742 0
XXXXX743 1
XXXXX744 0
XXXXX745 1
XXXXX746 0
XXXXX747 0
XXXXX748 0
XXXXX749 0
XXXXX750 0
XXXXX751 1
XXXXX752 0
XXXXX753 0
XXXXX754 0
XXXXX755 0
XXXXX756 1
XXXXX757 1
XXXXX758 1
XXXXX759 1
XXXXX760 0
XXXXX761 1
XXXXX762 0
XXXXX763 1
XXXXX764 0
XXXXX765 0
XXXXX766 1
XXXXX767 0
XXXXX768 0
XXXXX769 0
XXXXX770 0
XXXXX771 0
XXXXX772 0
XXXXX773 1
XXXXX774 1
XXXXX775 1
XXXXX776 1
XXXXX777 0
XXXXX778 0
XXXXX779 0
XXXXX780 1
XXXXX781 0
XXXXX782 0
XXXXX783 1
XXXXX784 1
XXXXX785 1
XXXXX786 0
XXXXX787 1
XXXXX788 1
XXXXX789 0
XXXXX790 0
XXXXX791 0
XXXXX792 0
XXXXX793 0
XXXXX794 1
XXXXX795 0
XXXXX796 1
XXXXX797 1
XXXXX798 0
XXXXX799 0
XXXXX800 1
XXXXX801 1
XXXXX802 1
XXXXX803 0
XXXXX804 0
XXXXX805 0
XXXXX806 1
XXXXX807 0
XXXXX808 1
XXXXX809 1
XXXXX810 0
XXXXX811 0
XXXXX812 0
XXXXX813 1
XXXXX814 1
XXXXX815 0
XXXXX816 1
XXXXX817 0
XXXXX818 1
XXXXX819 0
XXXXX820 1
XXXXX821 0
XXXXX822 0
XXXXX823 1
XXXXX824 0
XXXXX825 0
XXXXX826 0
XXXXX827 0
XXXXX828 1
XXXXX829 0
XXXXX830 1
XXXXX831 0
XXXXX832 0
XXXXX833 1
XXXXX834 1
XXXXX835 1
XXXXX836 1
XXXXX837 0
XXXXX838 1
XXXXX839 0
XXXXX840 1
XXXXX841 0
XXXXX842 1
XXXXX843 0
XXXXX844 1
XXXXX845 1
XXXXX846 1
XXXXX847 1
XXXXX848 1
XXXXX849 1
XXXXX850 0
XXXXX851 1
XXXXX852 1
XXXXX853 0
XXXXX854 0
XXXXX855 0
XXXXX856 1
XXXXX857 1
XXXXX858 1
XXXXX859 0
XXXXX860 0
XXXXX861 1
XXXXX862 1
XXXXX863 0
XXXXX864 1
XXXXX865 1
XXXXX866 1
XXXXX867 0
XXXXX868 1
XXXXX869 1
XXXXX870 0
XXXXX871 0
XXXXX872 0
XXXXX873 0
XXXXX874 1
XXXXX875 1
XXXXX876 0
XXXXX877 1
XXXXX878 1
XXXXX879 0
XXXXX880 1
XXXXX881 0
XXXXX882 1
XXXXX883 1
XXXXX884 1
XXXXX885 0
XXXXX886 0
XXXXX887 0
XXXXX888 1
XXXXX889 0
XXXXX890 1
XXXXX891 1
XXXXX892 1
XXXXX893 0
XXXXX894 0
XXXXX895 1
XXXXX896 1
XXXXX897 1
XXXXX898 0
XXXXX899 0
XXXXX900 0
XXXXX901 1
XXXXX902 0
XXXXX903 1
XXXXX904 0
XXXXX905 0
XXXXX906 1
XXXXX907 1
XXXXX908 1
XXXXX909 0
XXXXX910 1
XXXXX911 0
XXXXX912 0
XXXXX913 0
XXXXX914 0
XXXXX915 0
XXXXX916 0
XXXXX917 0
XXXXX918 0
XXXXX919 0
XXXXX920 0
XXXXX921 1
XXXXX922 0
XXXXX923 0
XXXXX924 1
XXXXX925 0
XXXXX926 1
XXXXX927 0
XXXXX928 1
XXXXX929 0
XXXXX930 1
XXXXX931 1
XXXXX932 0
XXXXX933 0
XXXXX934 1
XXXXX935 1
XXXXX936 0
XXXXX937 1
XXXXX938 1
XXXXX939 1
XXXXX940 1
XXXXX941 0
XXXXX942 1
XXXXX943 0
XXXXX944 1
XXXXX945 1
XXXXX946 0
XXXXX947 1
XXXXX948 0
XXXXX949 1
XXXXX950 0
XXXXX951 0
XXXXX952 1
XXXXX953 1
XXXXX954 0
XXXXX955 0
XXXXX956 1
XXXXX957 0
XXXXX958 0
XXXXX959 1
XXXXX960 0
XXXXX961 0
XXXXX962 0
XXXXX963 0
XXXXX964 0
XXXXX965 0
XXXXX966 1
XXXXX967 0
XXXXX968 1
XXXXX969 1
XXXXX970 1
XXXXX971 1
XXXXX972 1
XXXXX973 1
XXXXX974 1
XXXXX975 0
XXXXX976 0
XXXXX977 1
XXXXX978 1
XXXXX979 0
XXXXX980 1
XXXXX981 1
XXXXX982 0
XXXXX983 0
XXXXX984 1
XXXXX985 0
XXXXX986 0
XXXXX987 1
XXXXX988 1
XXXXX989 1
XXXXX990 0
XXXXX991 0
XXXXX992 0
XXXXX993 1
XXXXX994 0
XXXXX995 1
XXXXX996 1
XXXXX997 0
XXXXX998 1
XXXXX999 1
XXXX1000 0
XXXX1001 1
XXXX1002 1
XXXX1003 0
XXXX1004 0
XXXX1005 0
XXXX1006 1
XXXX1007 0
XXXX1008 1
XXXX1009 0
XXXX1010 1
XXXX1011 0
XXXX1012 0
XXXX1013 0
XXXX1014 1
XXXX1015 1
XXXX1016 1
XXXX1017 0
XXXX1018 1
XXXX1019 0
XXXX1020 0
XXXX1021 1
XXXX1022 1
XXXX1023 0
XXXX1024 1
XXXX1025 0
XXXX1026 0
XXXX1027 0
XXXX1028 0
XXXX1029 0
XXXX1030 0
XXXX1031 1
XXXX1032 0
XXXX1033 0
XXXX1034 0
XXXX1035 1
XXXX1036 1
XXXX1037 0
XXXX1038 0
XXXX1039 1
XXXX1040 1
XXXX1041 1
XXXX1042 1
XXXX1043 1
XXXX1044 0
XXXX1045 1
XXXX1046 1
XXXX1047 1
XXXX1048 1
XXXX1049 1
XXXX1050 0
XXXX1051 1
XXXX1052 1
XXXX1053 0
XXXX1054 1
XXXX1055 0
XXXX1056 1
XXXX1057 1
XXXX1058 1
XXXX1059 1
XXXX1060 0
XXXX1061 1
XXXX1062 1
XXXX1063 1
XXXX1064 1
XXXX1065 0
XXXX1066 0
XXXX1067 1
XXXX1068 1
XXXX1069 1
XXXX1070 0
XXXX1071 0
XXXX1072 1
XXXX1073 1
XXXX1074 0
XXXX1075 0
XXXX1076 1
XXXX1077 0
XXXX1078 1
XXXX1079 0
XXXX1080 1
XXXX1081 1
XXXX1082 0
XXXX1083 0
XXXX1084 1
XXXX1085 1
XXXX1086 1
XXXX1087 1
XXXX1088 1
XXXX1089 1
XXXX1090 1
XXXX1091 1
XXXX1092 0
XXXX1093 1
XXXX1094 1
XXXX1095 0
XXXX1096 1
XXXX1097 0
XXXX1098 1
XXXX1099 0
XXXX1100 1
XXXX1101 1
XXXX1102 0
XXXX1103 0
XXXX1104 0
XXXX1105 0
XXXX1106 1
XXXX1107 0
XXXX1108 0
XXXX1109 1
XXXX1110 1
XXXX1111 1
XXXX1112 0
XXXX1113 0
XXXX1114 0
XXXX1115 0
XXXX1116 0
XXXX1117 0
XXXX1118 1
XXXX1119 1
XXXX1120 0
XXXX1121 1
XXXX1122 0
XXXX1123 1
XXXX1124 0
XXXX1125 0
XXXX1126 0
XXXX1127 1
XXXX1128 0
XXXX1129 1
XXXX1130 1
XXXX1131 1
XXXX1132 1
XXXX1133 1
XXXX1134 0
XXXX1135 1
XXXX1136 0
XXXX1137 0
XXXX1138 1
XXXX1139 0
XXXX1140 0
XXXX1141 0
XXXX1142 1
XXXX1143 1
XXXX1144 0
XXXX1145 1
XXXX1146 1
XXXX1147 0
XXXX1148 0
XXXX1149 1
XXXX1150 1
XXXX1151 0
XXXX1152 0
XXXX1153 1
XXXX1154 0
XXXX1155 0
XXXX1156 1
XXXX1157 1
XXXX1158 0
XXXX1159 1
XXXX1160 1
XXXX1161 1
XXXX1162 0
XXXX1163 1
XXXX1164 0
XXXX1165 0
XXXX1166 0
XXXX1167 0
XXXX1168 0
XXXX1169 0
XXXX1170 0
XXXX1171 0
XXXX1172 0
XXXX1173 0
XXXX1174 1
XXXX1175 1
XXXX1176 1
XXXX1177 0
XXXX1178 1
XXXX1179 0
XXXX1180 1
XXXX1181 0
XXXX1182 1
XXXX1183 1
XXXX1184 1
XXXX1185 1
XXXX1186 1
XXXX1187 1
XXXX1188 0
XXXX1189 0
XXXX1190 0
XXXX1191 0
XXXX1192 0
XXXX1193 0
XXXX1194 1
XXXX1195 1
XXXX1196 1
XXXX1197 1
XXXX1198 1
XXXX1199 0
XXXX1200 0
XXXX1201 0
XXXX1202 1
XXXX1203 1
XXXX1204 0
XXXX1205 1
XXXX1206 0
XXXX1207 0
XXXX1208 0
XXXX1209 0
XXXX1210 1
XXXX1211 0
XXXX1212 1
XXXX1213 0
XXXX1214 0
XXXX1215 0
XXXX1216 1
XXXX1217 1
XXXX1218 1
XXXX1219 1
XXXX1220 1
XXXX1221 1
XXXX1222 0
XXXX1223 0
XXXX1224 1
XXXX1225 0
XXXX1226 1
XXXX1227 1
XXXX1228 1
XXXX1229 0
XXXX1230 0
XXXX1231 0
XXXX1232 1
XXXX1233 1
XXXX1234 1
XXXX1235 0
XXXX1236 0
XXXX1237 1
XXXX1238 1
XXXX1239 1
XXXX1240 0
XXXX1241 0
XXXX1242 1
XXXX1243 0
XXXX1244 1
XXXX1245 0
XXXX1246 1
XXXX1247 1
XXXX1248 1
XXXX1249 1
XXXX1250 0
XXXX1251 1
XXXX1252 1
XXXX1253 1
XXXX1254 1
XXXX1255 0
XXXX1256 1
XXXX1257 1
XXXX1258 1
XXXX1259 1
XXXX1260 0
XXXX1261 1
XXXX1262 0
XXXX1263 1
XXXX1264 0
XXXX1265 1
XXXX1266 0
XXXX1267 0
XXXX1268 1
XXXX1269 0
XXXX1270 1
XXXX1271 1
XXXX1272 0
XXXX1273 0
XXXX1274 1
XXXX1275 0
XXXX1276 0
XXXX1277 0
XXXX1278 1
XXXX1279 0
XXXX1280 1
XXXX1281 0
XXXX1282 1
XXXX1283 0
XXXX1284 0
XXXX1285 1
XXXX1286 0
XXXX1287 1
XXXX1288 0
XXXX1289 1
XXXX1290 1
XXXX1291 0
XXXX1292 0
XXXX1293 1
XXXX1294 0
XXXX1295 0
XXXX1296 1
XXXX1297 0
XXXX1298 1
XXXX1299 0
XXXX1300 0
XXXX1301 0
XXXX1302 1
XXXX1303 0
XXXX1304 1
XXXX1305 1
XXXX1306 1
XXXX1307 1
XXXX1308 1
XXXX1309 0
XXXX1310 1
XXXX1311 0
XXXX1312 0
XXXX1313 1
XXXX1314 1
XXXX1315 0
XXXX1316 0
XXXX1317 1
XXXX1318 0
XXXX1319 0
XXXX1320 0
XXXX1321 1
XXXX1322 0
XXXX1323 1
XXXX1324 0
XXXX1325 1
XXXX1326 0
XXXX1327 1
XXXX1328 1
XXXX1329 1
XXXX1330 0
XXXX1331 1
XXXX1332 0
XXXX1333 0
XXXX1334 1
XXXX1335 1
XXXX1336 0
XXXX1337 0
XXXX1338 1
XXXX1339 1
XXXX1340 0
XXXX1341 0
XXXX1342 0
XXXX1343 1
XXXX1344 1
XXXX1345 0
XXXX1346 1
XXXX1347 1
XXXX1348 0
XXXX1349 1
XXXX1350 0
XXXX1351 0
XXXX1352 0
XXXX1353 0
XXXX1354 0
XXXX1355 1
XXXX1356 1
XXXX1357 0
XXXX1358 0
XXXX1359 0
XXXX1360 0
XXXX1361 1
XXXX1362 1
XXXX1363 0
XXXX1364 1
XXXX1365 1
XXXX1366 1
XXXX1367 1
XXXX1368 1
XXXX1369 0
XXXX1370 0
XXXX1371 0
XXXX1372 0
XXXX1373 0
XXXX1374 1
XXXX1375 0
XXXX1376 1
XXXX1377 1
XXXX1378 0
XXXX1379 1
XXXX1380 0
XXXX1381 0
XXXX1382 1
XXXX1383 0
XXXX1384 0
XXXX1385 0
XXXX1386 1
XXXX1387 0
XXXX1388 1
XXXX1389 1
XXXX1390 0
XXXX1391 1
XXXX1392 0
XXXX1393 1
XXXX1394 0
XXXX1395 1
XXXX1396 1
XXXX1397 1
XXXX1398 1
XXXX1399 1
XXXX1400 1
XXXX1401 0
XXXX1402 0
XXXX1403 1
XXXX1404 1
XXXX1405 1
XXXX1406 1
XXXX1407 0
XXXX1408 0
XXXX1409 0
XXXX1410 0
XXXX1411 0
XXXX1412 0
XXXX1413 0
XXXX1414 1
XXXX1415 0
XXXX1416 0
XXXX1417 0
XXXX1418 0
XXXX1419 1
XXXX1420 0
XXXX1421 1
XXXX1422 1
XXXX1423 0
XXXX1424 1
XXXX1425 1
XXXX1426 1
XXXX1427 1
XXXX1428 1
XXXX1429 0
XXXX1430 1
XXXX1431 1
XXXX1432 1
XXXX1433 1
XXXX1434 1
XXXX1435 1
XXXX1436 0
XXXX1437 0
XXXX1438 0
XXXX1439 1
XXXX1440 0
XXXX1441 1
XXXX1442 1
XXXX1443 0
XXXX1444 0
XXXX1445 0
XXXX1446 1
XXXX1447 0
XXXX1448 1
XXXX1449 1
XXXX1450 1
XXXX1451 1
XXXX1452 0
XXXX1453 1
XXXX1454 1
XXXX1455 1
XXXX1456 1
XXXX1457 1
XXXX1458 1
XXXX1459 0
XXXX1460 0
XXXX1461 1
XXXX1462 0
XXXX1463 0
XXXX1464 0
XXXX1465 0
XXXX1466 0
XXXX1467 1
XXXX1468 0
XXXX1469 0
XXXX1470 0
XXXX1471 1
XXXX1472 1
XXXX1473 1
XXXX1474 0
XXXX1475 1
XXXX1476 0
XXXX1477 0
XXXX1478 1
XXXX1479 1
XXXX1480 1
XXXX1481 1
XXXX1482 1
XXXX1483 0
XXXX1484 0
XXXX1485 0
XXXX1486 1
XXXX1487 0
XXXX1488 0
XXXX1489 0
XXXX1490 1
XXXX1491 0
XXXX1492 1
XXXX1493 0
XXXX1494 1
XXXX1495 1
XXXX1496 0
XXXX1497 0
XXXX1498 0
XXXX1499 0
XXXX1500 0
XXXX1501 0
XXXX1502 0
XXXX1503 0
XXXX1504 0
XXXX1505 0
XXXX1506 0
XXXX1507 0
XXXX1508 0
XXXX1509 0
XXXX1510 0
XXXX1511 0
XXXX1512 0
XXXX1513 0
XXXX1514 0
XXXX1515 0
XXXX1516 0
XXXX1517 0
XXXX1518 0
XXXX1519 0
XXXX1520 0
XXXX1521 0
XXXX1522 0
XXXX1523 0
XXXX1524 0
XXXX1525 0
XXXX1526 0
XXXX1527 0
XXXX1528 0
XXXX1529 0
XXXX1530 0
XXXX1531 0
XXXX1532 0
XXXX1533 0
XXXX1534 0
XXXX1535 0
XXXX1536 0
XXXX1537 0
XXXX1538 0
XXXX1539 0
XXXX1540 0
XXXX1541 0
XXXX1542 0
XXXX1543 0
XXXX1544 0
XXXX1545 0
XXXX1546 0
XXXX1547 0
XXXX1548 0
XXXX1549 0
XXXX1550 0
XXXX1551 0
XXXX1552 0
XXXX1553 0
XXXX1554 0
XXXX1555 0
XXXX1556 0
XXXX1557 0
XXXX1558 0
XXXX1559 1
XXXX1560 1
XXXX1561 1
XXXX1562 0
XXXX1563 1
XXXX1564 1
XXXX1565 1
XXXX1566 1
XXXX1567 1
XXXX1568 1
XXXX1569 1
XXXX1570 1
XXXX1571 1
XXXX1572 1
XXXX1573 0
XXXX1574 0
XXXX1575 1
XXXX1576 1
XXXX1577 0
XXXX1578 0
XXXX1579 1
XXXX1580 1
XXXX1581 1
XXXX1582 0
XXXX1583 1
XXXX1584 1
XXXX1585 0
XXXX1586 1
XXXX1587 1
XXXX1588 1
XXXX1589 0
XXXX1590 0
XXXX1591 1
XXXX1592 1
XXXX1593 1
XXXX1594 1
XXXX1595 1
XXXX1596 0
XXXX1597 1
XXXX1598 0
XXXX1599 1
XXXX1600 1
XXXX1601 0
XXXX1602 0
XXXX1603 1
XXXX1604 1
XXXX1605 0
XXXX1606 0
XXXX1607 0
XXXX1608 0
XXXX1609 0
XXXX1610 0
XXXX1611 0
XXXX1612 1
XXXX1613 0
XXXX1614 1
XXXX1615 0
XXXX1616 0
XXXX1617 0
XXXX1618 1
XXXX1619 1
XXXX1620 0
XXXX1621 1
XXXX1622 1
XXXX1623 1
XXXX1624 0
XXXX1625 0
XXXX1626 1
XXXX1627 0
XXXX1628 0
XXXX1629 0
XXXX1630 1
XXXX1631 1
XXXX1632 0
XXXX1633 0
XXXX1634 0
XXXX1635 1
XXXX1636 0
XXXX1637 0
XXXX1638 0
XXXX1639 0
XXXX1640 0
XXXX1641 0
XXXX1642 0
XXXX1643 0
XXXX1644 1
XXXX1645 1
XXXX1646 0
XXXX1647 1
XXXX1648 1
XXXX1649 1
XXXX1650 0
XXXX1651 0
XXXX1652 0
XXXX1653 0
XXXX1654 1
XXXX1655 1
XXXX1656 1
XXXX1657 0
XXXX1658 0
XXXX1659 0
XXXX1660 0
XXXX1661 0
XXXX1662 1
XXXX1663 0
XXXX1664 0
XXXX1665 0
XXXX1666 0
XXXX1667 0
XXXX1668 0
XXXX1669 0
XXXX1670 0
XXXX1671 1
XXXX1672 1
XXXX1673 0
XXXX1674 1
XXXX1675 1
XXXX1676 1
XXXX1677 1
XXXX1678 0
XXXX1679 1
XXXX1680 0
XXXX1681 1
XXXX1682 0
XXXX1683 1
XXXX1684 0
XXXX1685 0
XXXX1686 1
XXXX1687 1
XXXX1688 0
XXXX1689 0
XXXX1690 0
XXXX1691 0
XXXX1692 0
XXXX1693 0
XXXX1694 0
XXXX1695 0
XXXX1696 0
XXXX1697 0
XXXX1698 0
XXXX1699 0
XXXX1700 0
XXXX1701 0
XXXX1702 0
XXXX1703 0
XXXX1704 0
XXXX1705 0
XXXX1706 0
XXXX1707 0
XXXX1708 0
XXXX1709 0
XXXX1710 0
XXXX1711 0
XXXX1712 0
XXXX1713 0
XXXX1714 0
XXXX1715 0
XXXX1716 0
XXXX1717 0
XXXX1718 0
XXXX1719 0
XXXX1720 0
XXXX1721 0
XXXX1722 0
XXXX1723 0
XXXX1724 0
XXXX1725 0
XXXX1726 0
XXXX1727 0
XXXX1728 0
XXXX1729 0
XXXX1730 0
XXXX1731 0
XXXX1732 0
XXXX1733 0
XXXX1734 1
XXXX1735 0
XXXX1736 0
XXXX1737 1
XXXX1738 0
XXXX1739 0
XXXX1740 0
XXXX1741 0
XXXX1742 0
XXXX1743 0
XXXX1744 0
XXXX1745 0
XXXX1746 0
XXXX1747 0
XXXX1748 0
XXXX1749 0
XXXX1750 1
XXXX1751 1
XXXX1752 1
XXXX1753 1
XXXX1754 1
XXXX1755 0
XXXX1756 1
XXXX1757 1
XXXX1758 1
XXXX1759 1
XXXX1760 1
XXXX1761 0
XXXX1762 1
XXXX1763 0
XXXX1764 1
XXXX1765 1
XXXX1766 1
XXXX1767 0
XXXX1768 0
XXXX1769 1
XXXX1770 0
XXXX1771 1
XXXX1772 1
XXXX1773 1
XXXX1774 1
XXXX1775 1
XXXX1776 0
XXXX1777 1
XXXX1778 0
XXXX1779 0
XXXX1780 0
XXXX1781 0
XXXX1782 1
XXXX1783 1
XXXX1784 0
XXXX1785 0
XXXX1786 1
XXXX1787 1
XXXX1788 1
XXXX1789 0
XXXX1790 0
XXXX1791 1
XXXX1792 1
XXXX1793 1
XXXX1794 0
XXXX1795 1
XXXX1796 0
XXXX1797 1
XXXX1798 1
XXXX1799 0
XXXX1800 1
XXXX1801 1
XXXX1802 1
XXXX1803 0
XXXX1804 1
XXXX1805 0
XXXX1806 0
XXXX1807 1
XXXX1808 1
XXXX1809 0
XXXX1810 1
XXXX1811 1
XXXX1812 1
XXXX1813 1
XXXX1814 0
XXXX1815 0
XXXX1816 1
XXXX1817 1
XXXX1818 0
XXXX1819 0
XXXX1820 1
XXXX1821 1
XXXX1822 1
XXXX1823 0
XXXX1824 1
XXXX1825 0
XXXX1826 1
XXXX1827 0
XXXX1828 0
XXXX1829 0
XXXX1830 0
XXXX1831 0
XXXX1832 0
XXXX1833 1
XXXX1834 1
XXXX1835 1
XXXX1836 0
XXXX1837 1
XXXX1838 0
XXXX1839 1
XXXX1840 0
XXXX1841 1
XXXX1842 1
XXXX1843 1
XXXX1844 1
XXXX1845 1
XXXX1846 0
XXXX1847 1
XXXX1848 0
XXXX1849 0
XXXX1850 1
XXXX1851 0
XXXX1852 0
XXXX1853 0
XXXX1854 1
XXXX1855 1
XXXX1856 1
XXXX1857 0
XXXX1858 1
XXXX1859 0
XXXX1860 0
XXXX1861 0
XXXX1862 0
XXXX1863 0
XXXX1864 0
XXXX1865 1
XXXX1866 0
XXXX1867 0
XXXX1868 0
XXXX1869 1
XXXX1870 0
XXXX1871 0
XXXX1872 0
XXXX1873 1
XXXX1874 1
XXXX1875 1
XXXX1876 1
XXXX1877 1
XXXX1878 0
XXXX1879 1
XXXX1880 0
XXXX1881 0
XXXX1882 0
XXXX1883 1
XXXX1884 0
XXXX1885 0
XXXX1886 0
XXXX1887 0
XXXX1888 0
XXXX1889 0
XXXX1890 1
XXXX1891 0
XXXX1892 0
XXXX1893 1
XXXX1894 1
XXXX1895 1
XXXX1896 1
XXXX1897 1
XXXX1898 1
XXXX1899 0
XXXX1900 0
XXXX1901 0
XXXX1902 0
XXXX1903 0
XXXX1904 0
XXXX1905 1
XXXX1906 0
XXXX1907 0
XXXX1908 0
XXXX1909 0
XXXX1910 0
XXXX1911 1
XXXX1912 1
XXXX1913 1
XXXX1914 0
XXXX1915 0
XXXX1916 0
XXXX1917 1
XXXX1918 0
XXXX1919 1
XXXX1920 1
XXXX1921 0
XXXX1922 1
XXXX1923 1
XXXX1924 1
XXXX1925 0
XXXX1926 0
XXXX1927 0
XXXX1928 0
XXXX1929 0
XXXX1930 0
XXXX1931 0
XXXX1932 0
XXXX1933 0
XXXX1934 0
XXXX1935 0
XXXX1936 0
XXXX1937 0
XXXX1938 0
XXXX1939 0
XXXX1940 0
XXXX1941 0
XXXX1942 0
XXXX1943 0
XXXX1944 0
XXXX1945 0
XXXX1946 0
XXXX1947 0
XXXX1948 0
XXXX1949 0
XXXX1950 0
XXXX1951 0
XXXX1952 0
XXXX1953 0
XXXX1954 0
XXXX1955 0
XXXX1956 0
XXXX1957 0
XXXX1958 0
XXXX1959 0
XXXX1960 0
XXXX1961 0
XXXX1962 0
XXXX1963 0
XXXX1964 0
XXXX1965 0
XXXX1966 0
XXXX1967 0
XXXX1968 0
XXXX1969 0
XXXX1970 0
XXXX1971 0
XXXX1972 0
XXXX1973 0
XXXX1974 0
XXXX1975 0
XXXX1976 0
XXXX1977 0
XXXX1978 1
XXXX1979 0
XXXX1980 0
XXXX1981 0
XXXX1982 0
XXXX1983 1
XXXX1984 1
XXXX1985 1
XXXX1986 0
XXXX1987 1
XXXX1988 0
XXXX1989 1
XXXX1990 0
XXXX1991 1
XXXX1992 0
XXXX1993 0
XXXX1994 1
XXXX1995 1
XXXX1996 0
XXXX1997 0
XXXX1998 1
XXXX1999 1
XXXX2000 1
XXXX2001 1
XXXX2002 0
XXXX2003 0
XXXX2004 1
XXXX2005 0
XXXX2006 0
XXXX2007 1
XXXX2008 1
XXXX2009 0
XXXX2010 1
XXXX2011 0
XXXX2012 1
XXXX2013 0
XXXX2014 0
XXXX2015 0
XXXX2016 1
XXXX2017 0
XXXX2018 1
XXXX2019 1
XXXX2020 0
XXXX2021 1
XXXX2022 1
XXXX2023 1
XXXX2024 0
XXXX2025 0
XXXX2026 1
XXXX2027 1
XXXX2028 0
XXXX2029 1
XXXX2030 0
XXXX2031 1
XXXX2032 1
XXXX2033 0
XXXX2034 0
XXXX2035 0
XXXX2036 0
XXXX2037 1
XXXX2038 1
XXXX2039 1
XXXX2040 0
XXXX2041 0
XXXX2042 0
XXXX2043 0
XXXX2044 1
XXXX2045 0
XXXX2046 0
XXXX2047 1
XXXX2048 1
XXXX2049 1
XXXX2050 0
XXXX2051 0
XXXX2052 0
XXXX2053 0
XXXX2054 0
XXXX2055 0
XXXX2056 1
XXXX2057 0
XXXX2058 0
XXXX2059 0
XXXX2060 1
XXXX2061 0
XXXX2062 1
XXXX2063 1
XXXX2064 1
XXXX2065 0
XXXX2066 0
XXXX2067 0
XXXX2068 1
XXXX2069 1
XXXX2070 0
XXXX2071 1
XXXX2072 0
XXXX2073 0
XXXX2074 0
XXXX2075 1
XXXX2076 0
XXXX2077 1
XXXX2078 0
XXXX2079 1
XXXX2080 0
XXXX2081 0
XXXX2082 1
XXXX2083 1
XXXX2084 0
XXXX2085 0
XXXX2086 0
XXXX2087 1
XXXX2088 1
XXXX2089 1
XXXX2090 1
XXXX2091 0
XXXX2092 0
XXXX2093 1
XXXX2094 1
XXXX2095 0
XXXX2096 0
XXXX2097 1
XXXX2098 1
XXXX2099 0
XXXX2100 1
XXXX2101 0
XXXX2102 1
XXXX2103 1
XXXX2104 1
XXXX2105 0
XXXX2106 0
XXXX2107 1
XXXX2108 1
XXXX2109 0
XXXX2110 0
XXXX2111 0
XXXX2112 0
XXXX2113 0
XXXX2114 0
XXXX2115 0
XXXX2116 0
XXXX2117 0
XXXX2118 0
XXXX2119 0
XXXX2120 0
XXXX2121 0
XXXX2122 0
XXXX2123 0
XXXX2124 0
XXXX2125 0
XXXX2126 0
XXXX2127 0
XXXX2128 0
XXXX2129 0
XXXX2130 0
XXXX2131 0
XXXX2132 0
XXXX2133 0
XXXX2134 0
XXXX2135 0
XXXX2136 0
XXXX2137 0
XXXX2138 0
XXXX2139 0
XXXX2140 0
XXXX2141 0
XXXX2142 0
XXXX2143 0
XXXX2144 0
XXXX2145 0
XXXX2146 0
XXXX2147 0
XXXX2148 0
XXXX2149 0
XXXX2150 0
XXXX2151 0
XXXX2152 0
XXXX2153 0
XXXX2154 0
XXXX2155 0
XXXX2156 0
XXXX2157 0
XXXX2158 0
XXXX2159 0
XXXX2160 0
XXXX2161 0
XXXX2162 0
XXXX2163 1
XXXX2164 0
XXXX2165 1
XXXX2166 1
XXXX2167 0
XXXX2168 1
XXXX2169 0
XXXX2170 0
XXXX2171 1
XXXX2172 1
XXXX2173 0
XXXX2174 1
XXXX2175 0
XXXX2176 0
XXXX2177 0
XXXX2178 0
XXXX2179 0
XXXX2180 1
XXXX2181 1
XXXX2182 1
XXXX2183 0
XXXX2184 0
XXXX2185 1
XXXX2186 1
XXXX2187 1
XXXX2188 0
XXXX2189 0
XXXX2190 1
XXXX2191 1
XXXX2192 0
XXXX2193 1
XXXX2194 1
XXXX2195 0
XXXX2196 0
XXXX2197 0
XXXX2198 0
XXXX2199 1
XXXX2200 1
XXXX2201 1
XXXX2202 0
XXXX2203 1
XXXX2204 1
XXXX2205 1
XXXX2206 0
XXXX2207 1
XXXX2208 1
XXXX2209 1
XXXX2210 1
XXXX2211 0
XXXX2212 0
XXXX2213 0
XXXX2214 0
XXXX2215 0
XXXX2216 1
XXXX2217 0
XXXX2218 1
XXXX2219 0
XXXX2220 0
XXXX2221 1
XXXX2222 0
XXXX2223 0
XXXX2224 1
XXXX2225 1
XXXX2226 1
XXXX2227 1
XXXX2228 0
XXXX2229 1
XXXX2230 1
XXXX2231 1
XXXX2232 1
XXXX2233 1
XXXX2234 1
XXXX2235 0
XXXX2236 0
XXXX2237 1
XXXX2238 0
XXXX2239 1
XXXX2240 1
XXXX2241 0
XXXX2242 0
XXXX2243 1
XXXX2244 1
XXXX2245 1
XXXX2246 0
XXXX2247 0
XXXX2248 0
XXXX2249 0
XXXX2250 1
XXXX2251 1
XXXX2252 0
XXXX2253 1
XXXX2254 0
XXXX2255 0
XXXX2256 0
XXXX2257 1
XXXX2258 0
XXXX2259 0
XXXX2260 1
XXXX2261 0
XXXX2262 0
XXXX2263 0
XXXX2264 0
XXXX2265 1
XXXX2266 0
XXXX2267 0
XXXX2268 1
XXXX2269 1
XXXX2270 1
XXXX2271 0
XXXX2272 1
XXXX2273 0
XXXX2274 1
XXXX2275 0
XXXX2276 0
XXXX2277 0
XXXX2278 0
XXXX2279 0
XXXX2280 0
XXXX2281 1
XXXX2282 1
XXXX2283 0
XXXX2284 0
XXXX2285 0
XXXX2286 1
XXXX2287 1
XXXX2288 1
XXXX2289 1
XXXX2290 1
XXXX2291 1
XXXX2292 1
XXXX2293 0
XXXX2294 0
XXXX2295 0
XXXX2296 0
XXXX2297 0
XXXX2298 1
XXXX2299 1
XXXX2300 1
XXXX2301 1
XXXX2302 1
XXXX2303 1
XXXX2304 0
XXXX2305 0
XXXX2306 0
XXXX2307 1
XXXX2308 1
XXXX2309 0
XXXX2310 1
XXXX2311 1
XXXX2312 1
XXXX2313 1
XXXX2314 1
XXXX2315 1
XXXX2316 0
XXXX2317 1
XXXX2318 1
XXXX2319 0
XXXX2320 0
XXXX2321 1
XXXX2322 1
XXXX2323 0
XXXX2324 1
XXXX2325 0
XXXX2326 1
XXXX2327 1
XXXX2328 0
XXXX2329 1
XXXX2330 1
XXXX2331 1
XXXX2332 1
XXXX2333 0
XXXX2334 0
XXXX2335 0
XXXX2336 0
XXXX2337 0
XXXX2338 1
XXXX2339 0
XXXX2340 0
XXXX2341 1
XXXX2342 1
XXXX2343 1
XXXX2344 1
XXXX2345 0
XXXX2346 1
XXXX2347 1
XXXX2348 1
XXXX2349 1
XXXX2350 0
XXXX2351 1
XXXX2352 0
XXXX2353 0
XXXX2354 1
XXXX2355 1
XXXX2356 0
XXXX2357 1
XXXX2358 1
XXXX2359 1
XXXX2360 0
XXXX2361 1
XXXX2362 0
XXXX2363 0
XXXX2364 0
XXXX2365 1
XXXX2366 1
XXXX2367 1
XXXX2368 0
XXXX2369 1
XXXX2370 0
XXXX2371 0
XXXX2372 0
XXXX2373 1
XXXX2374 1
XXXX2375 0
XXXX2376 1
XXXX2377 1
XXXX2378 1
XXXX2379 1
XXXX2380 0
XXXX2381 0
XXXX2382 1
XXXX2383 1
XXXX2384 0
XXXX2385 0
XXXX2386 0
XXXX2387 1
XXXX2388 1
XXXX2389 0
XXXX2390 1
XXXX2391 1
XXXX2392 0
XXXX2393 0
XXXX2394 0
XXXX2395 0
XXXX2396 0
XXXX2397 1
XXXX2398 1
XXXX2399 0
XXXX2400 0
XXXX2401 0
XXXX2402 1
XXXX2403 0
XXXX2404 0
XXXX2405 0
XXXX2406 0
XXXX2407 0
XXXX2408 1
XXXX2409 1
XXXX2410 1
XXXX2411 1
XXXX2412 1
XXXX2413 0
XXXX2414 1
XXXX2415 1
XXXX2416 0
XXXX2417 1
XXXX2418 1
XXXX2419 1
XXXX2420 0
XXXX2421 1
XXXX2422 1
XXXX2423 1
XXXX2424 0
XXXX2425 0
XXXX2426 0
XXXX2427 1
XXXX2428 1
XXXX2429 1
XXXX2430 0
XXXX2431 1
XXXX2432 1
XXXX2433 1
XXXX2434 1
XXXX2435 0
XXXX2436 0
XXXX2437 0
XXXX2438 1
YYYYYYY0 1
YYYYYYY1 1
YYYYYYY2 0
YYYYYYY3 1
YYYYYYY4 1
YYYYYYY5 1
YYYYYYY6 1
YYYYYYY7 1
YYYYYYY8 1
YYYYYYY9 1
YYYYYY10 1
YYYYYY11 1
YYYYYY12 1
YYYYYY13 1
YYYYYY14 1
YYYYYY15 1
YYYYYY16 1
YYYYYY17 1
YYYYYY18 1
YYYYYY19 1
YYYYYY20 1
YYYYYY21 1
YYYYYY22 1
YYYYYY23 1
YYYYYY24 1
YYYYYY25 1
YYYYYY26 1
YYYYYY27 1
YYYYYY28 1
YYYYYY29 1
YYYYYY30 1
YYYYYY31 0
YYYYYY32 1
YYYYYY33 1
YYYYYY34 1
YYYYYY35 0
YYYYYY36 1
YYYYYY37 1
YYYYYY38 1
YYYYYY39 1
YYYYYY40 0
YYYYYY41 1
YYYYYY42 1
YYYYYY43 1
YYYYYY44 0
YYYYYY45 1
YYYYYY46 1
YYYYYY47 1
YYYYYY48 1
YYYYYY49 1
